(set-logic QF_FP)
(set-option :produce-models true)
(set-info :source |Random FP created by PyMPF|)
(set-info :category random)
(set-info :status unsat)
(declare-const x Float32)
(assert (= x (fp #b0 #b00000000 #b00011010111010101001000)))
(declare-const y Float32)
(assert (= y (fp #b0 #b00110011 #b10000101111000110001010)))
(declare-const z Float32)
(assert (= z ((_ to_fp 8 24) #xA0EFB88F)))
(declare-const result Float32)
(assert (= result (fp.fma RNE x y z)))
(assert (not (= result (fp #b1 #b01000001 #b11011111011100010001111))))
(check-sat)
(exit)
